CPXPARAM_MIP_Tolerances_MIPGap                   0
Lazy constraint(s) or lazy constraint callback is present.
    Disabling dual reductions (CPX_PARAM_REDUCE) in presolve.
    Disabling non-linear reductions (CPX_PARAM_PRELINEAR) in presolve.
         Disabling repeat represolve because of lazy constraint/incumbent callback.
Tried aggregator 1 time.
MIP Presolve eliminated 1172 rows and 5 columns.
MIP Presolve modified 2 coefficients.
Reduced MIP has 310 rows, 1234 columns, and 680 nonzeros.
Reduced MIP has 1007 binaries, 0 generals, 0 SOSs, and 0 indicators.
Presolve time = 0.00 sec. (0.85 ticks)
Probing time = 0.00 sec. (0.40 ticks)
Clique table members: 201.
MIP emphasis: balance optimality and feasibility.
MIP search method: traditional branch-and-cut.
Parallel mode: none, using 1 thread.
Root relaxation solution time = 0.00 sec. (0.75 ticks)

        Nodes                                         Cuts/
   Node  Left     Objective  IInf  Best Integer    Best Bound    ItCnt     Gap         Variable B NodeID Parent  Depth

      0     0        5.0000    30                      5.0000       30         
      0     0       18.0000    21                   Cuts: 175      140         
      0     0       18.0002    15                    Cuts: 25      158         
      0     0       19.0000     4                    Cuts: 19      165         
      0     0       19.0000    11                  MIRcuts: 5      172         
*     0+    0                           19.0000       19.0000             0.00%
      0     0        cutoff             19.0000       19.0000      172    0.00%                        0             0
Elapsed time = 0.05 sec. (22.88 ticks, tree = 0.01 MB, solutions = 1)

Clique cuts applied:  85
Implied bound cuts applied:  8
Mixed integer rounding cuts applied:  15
User cuts applied:  42

Root node processing (before b&c):
  Real time             =    0.05 sec. (22.94 ticks)
Sequential b&c:
  Real time             =    0.00 sec. (0.00 ticks)
                          ------------
Total (root+branch&cut) =    0.05 sec. (22.94 ticks)
